Lectures/Lec11-SetCover-Dual.lp
max  y1 + y2 + y3 + y4 +y5 +y6 +y7+y8
s.t.  y1+y2+y3+y4 <= 8
      y7+y8 <= 3
      y1+y3+y5+y7 <= 8
      y2+y4+y5+y6+y8 <= 4
      y6+y7 <=1 
	y1 >=0
	y2 >=0
	y3 >=0
	y4 >=0
	y5 >=0
	y6 >=0
	y7 >=0
	y8 >=0
end
