Lectures/Lec11-SetCover-Dual.lp.out
Problem:    
Rows:       13
Columns:    8
Non-zeros:  25
Status:     OPTIMAL
Objective:  obj = 12 (MAXimum)

   No.   Row name   St   Activity     Lower bound   Upper bound    Marginal
------ ------------ -- ------------- ------------- ------------- -------------
     1 r.2          NU             8                           8           0.5
     2 r.3          NU             3                           3           0.5
     3 r.4          NU             8                           8           0.5
     4 r.5          NU             4                           4           0.5
     5 r.6          NU             1                           1           0.5
     6 r.7          B              0             0               
     7 r.8          B              0             0               
     8 r.9          B              8             0               
     9 r.10         B              0             0               
    10 r.11         B              0             0               
    11 r.12         B              1             0               
    12 r.13         B              0             0               
    13 r.14         B              3             0               

   No. Column name  St   Activity     Lower bound   Upper bound    Marginal
------ ------------ -- ------------- ------------- ------------- -------------
     1 y1           NL             0             0                       < eps
     2 y2           NL             0             0                       < eps
     3 y3           B              8             0               
     4 y4           B              0             0               
     5 y5           B              0             0               
     6 y6           B              1             0               
     7 y7           NL             0             0                        -0.5
     8 y8           B              3             0               

Karush-Kuhn-Tucker optimality conditions:

KKT.PE: max.abs.err. = 0.00e+00 on row 0
        max.rel.err. = 0.00e+00 on row 0
        High quality

KKT.PB: max.abs.err. = 0.00e+00 on row 0
        max.rel.err. = 0.00e+00 on row 0
        High quality

KKT.DE: max.abs.err. = 0.00e+00 on column 0
        max.rel.err. = 0.00e+00 on column 0
        High quality

KKT.DB: max.abs.err. = 0.00e+00 on row 0
        max.rel.err. = 0.00e+00 on row 0
        High quality

End of output
